Route #1: 7 9 43 29 22 20 33 30
Route #2: 16
Route #3: 4 32 31 27 48 5 14 15 21 41
Route #4: 8 11 39 23 2 18 6 46
Route #5: 1 35 34 13 44 19 47 28 17 25 12 26 50 38 42 40 36 24 37 10
Route #6: 3 49 45
Route #7: 
Route #8: 
cost 1464.3964967637144
